submitit INFO (2023-04-29 16:44:03,439) - Starting with JobEnvironment(job_id=27482, hostname=cpunode2, local_rank=3(5), node=0(1), global_rank=3(5))
submitit INFO (2023-04-29 16:44:03,439) - Loading pickle: /h/30/pashootan/Matrix-Mult-CP/src/../logs/2x2x2_4_Apr29_16:43:59/27482_submitted.pkl
 ! --------------------------------------------------- CP Optimizer 22.1.1.0 --
 ! Satisfiability problem - 48 variables, 179 constraints
 ! TimeLimit            = 7200
 ! Workers              = 8
 ! LogPeriod            = 10000000
 ! RandomSeed           = 1990
 ! Initial process time : 0.01s (0.01s extraction + 0.00s propagation)
 !  . Log search space  : 71.4 (before), 71.4 (after)
 !  . Memory usage      : 502.0 kB (before), 502.0 kB (after)
 ! Using parallel search with 8 workers.
 ! ----------------------------------------------------------------------------
 !               Branches  Non-fixed    W       Branch decision
 ! ----------------------------------------------------------------------------
 ! Search completed, model has no solution.
 ! ----------------------------------------------------------------------------
 ! Number of branches     : 89249
 ! Number of fails        : 43291
 ! Total memory usage     : 8.2 MB (8.1 MB CP Optimizer + 0.0 MB Concert)
 ! Time spent in solve    : 0.13s (0.13s engine + 0.01s extraction)
 ! Search speed (br. / s) : 743741.7
 ! ----------------------------------------------------------------------------
Infeasible
Saving stats to: /h/30/pashootan/Matrix-Mult-CP/logs/2x2x2_4_Apr29_16:43:59/27482_3_stats.csv
submitit INFO (2023-04-29 16:44:03,957) - Job completed successfully
